NAME: br17 
TYPE: ATSP 
COMMENT: 17 city problem (Repetto) 
DIMENSION: 17 
EDGE_WEIGHT_TYPE: EXPLICIT 
EDGE_WEIGHT_FORMAT: FULL_MATRIX 

CROSSOVER: 1
MUTATIONS: 1 0
SELECTION: 1
GENERATIONS: 374
POPULATION: 51

0 time
 7 16 0 11 13 2 9 12 10 14 4 3 5 15 6 1 8 | Mu 46.

1 time
 5 7 8 9 1 13 2 10 11 16 6 4 3 14 12 0 15 | Mu 66.

2 time
 1 16 7 12 2 10 6 4 3 14 5 15 0 13 9 8 11 | Mu 65.

3 time
 2 13 12 10 9 1 0 7 6 14 5 15 4 3 16 8 11 | Mu 47.

4 time
 8 16 9 10 0 11 13 2 1 12 7 5 15 3 4 14 6 | Mu 49.

MINIMUM: 46
AVERAGE: 54
MAXIMUM: 66

CROSSOVER: 1
MUTATIONS: 2 0
SELECTION: 1
GENERATIONS: 374
POPULATION: 51

0 time
 9 12 5 11 13 2 0 10 1 8 16 7 3 4 6 15 14 | Mu 60.

1 time
 0 11 10 2 12 13 9 1 16 5 15 8 7 6 3 4 14 | Mu 64.

2 time
 0 6 15 1 13 11 9 2 12 7 8 16 4 3 14 5 10 | Mu 67.

3 time
 10 7 11 2 13 0 9 1 14 15 5 4 3 16 8 6 12 | Mu 65.

4 time
 14 15 4 3 6 9 11 10 2 13 1 0 7 8 16 12 5 | Mu 53.

MINIMUM: 53
AVERAGE: 61
MAXIMUM: 67

CROSSOVER: 1
MUTATIONS: 1 2
SELECTION: 1
GENERATIONS: 374
POPULATION: 51

0 time
 4 14 8 10 12 9 13 2 1 0 11 7 16 15 6 5 3 | Mu 47.

1 time
 9 1 8 7 16 14 0 11 12 13 2 10 15 6 3 4 5 | Mu 58.

2 time
 16 8 7 12 9 1 6 0 11 2 13 10 15 14 5 4 3 | Mu 55.

3 time
 1 12 9 13 11 14 7 16 8 15 5 3 4 6 0 2 10 | Mu 60.

4 time
 12 0 11 2 1 9 6 15 14 5 3 4 16 7 8 10 13 | Mu 48.

MINIMUM: 47
AVERAGE: 53
MAXIMUM: 60

CROSSOVER: 1
MUTATIONS: 1 0
SELECTION: 2
GENERATIONS: 374
POPULATION: 51

0 time
 7 11 0 13 2 10 1 9 12 16 6 5 14 15 4 3 8 | Mu 44.

1 time
 7 12 6 5 15 1 13 2 10 9 8 16 11 0 14 3 4 | Mu 63.

2 time
 2 12 10 15 5 4 16 7 11 0 1 8 3 6 14 9 13 | Mu 71.

3 time
 2 13 1 12 5 3 6 11 0 8 15 14 4 7 16 10 9 | Mu 70.

4 time
 15 5 3 4 8 12 10 2 13 11 0 1 9 7 16 14 6 | Mu 47.

MINIMUM: 44
AVERAGE: 59
MAXIMUM: 71

CROSSOVER: 1
MUTATIONS: 2 0
SELECTION: 2
GENERATIONS: 374
POPULATION: 51

0 time
 8 14 0 7 16 4 3 5 15 6 1 10 13 2 11 12 9 | Mu 63.

1 time
 2 0 15 14 5 3 8 7 9 1 10 11 6 4 16 12 13 | Mu 73.

2 time
 4 3 15 11 12 10 13 1 9 2 0 6 5 8 16 7 14 | Mu 61.

3 time
 0 11 10 1 16 6 15 5 7 8 3 4 14 9 12 2 13 | Mu 58.

4 time
 13 2 11 12 1 10 8 7 16 9 15 6 4 3 5 14 0 | Mu 51.

MINIMUM: 51
AVERAGE: 61
MAXIMUM: 73

CROSSOVER: 1
MUTATIONS: 1 2
SELECTION: 2
GENERATIONS: 374
POPULATION: 51

0 time
 8 11 12 1 10 9 2 13 0 5 6 15 14 4 3 16 7 | Mu 42.

1 time
 1 13 2 11 0 15 6 14 5 4 3 8 7 16 12 9 10 | Mu 39.

2 time
 3 15 12 9 10 1 6 5 7 8 16 0 2 13 11 14 4 | Mu 59.

3 time
 3 5 15 6 11 12 9 13 2 1 10 0 7 8 16 14 4 | Mu 45.

4 time
 6 1 12 9 13 2 10 11 16 8 7 0 14 4 3 5 15 | Mu 47.

MINIMUM: 39
AVERAGE: 46
MAXIMUM: 59

CROSSOVER: 2
MUTATIONS: 1 2
SELECTION: 2
GENERATIONS: 374
POPULATION: 51

0 time
 13 10 9 8 7 16 4 6 0 5 15 3 14 1 12 11 2 | Mu 70.

1 time
 12 7 8 0 11 6 14 15 4 3 5 16 1 10 9 13 2 | Mu 49.

2 time
 1 2 13 11 0 10 12 8 4 3 5 6 15 14 7 16 9 | Mu 47.

3 time
 16 15 14 6 3 4 5 11 10 2 13 12 1 9 7 0 8 | Mu 52.

4 time
 2 13 9 12 1 16 0 11 8 7 15 6 14 4 3 5 10 | Mu 49.

MINIMUM: 47
AVERAGE: 53
MAXIMUM: 70

